p tw 42 45
1 2
2 13
3 4
4 5
5 6
6 7
7 8
8 9
9 10
10 11
11 12
12 14
13 24
14 15
15 16
15 17
16 36
17 18
18 19
19 20
20 21
21 22
22 23
22 5
23 25
24 35
25 26
26 27
27 28
28 29
29 30
30 31
31 5
32 33
33 34
34 36
35 38
36 37
38 39
39 40
39 3
40 41
41 42
41 14
42 32
